data/CVRPLIB/Vrp-Set-XML100/instances/XML100_3315_24.vrp
NAME : XML100_3315_24
COMMENT : Generated by Queiroga, Sadykov, Uchoa, and Vidal (2021)
TYPE : CVRP
DIMENSION : 101
EDGE_WEIGHT_TYPE : EUC_2D
CAPACITY : 21
NODE_COORD_SECTION
1    0    0   
2    530  344 
3    403  421 
4    62   17  
5    670  415 
6    597  267 
7    691  397 
8    264  858 
9    514  410 
10   492  610 
11   612  497 
12   803  734 
13   583  560 
14   815  967 
15   284  174 
16   209  8   
17   613  891 
18   386  193 
19   564  384 
20   69   116 
21   532  380 
22   252  640 
23   590  483 
24   128  96  
25   528  714 
26   765  971 
27   458  539 
28   475  261 
29   585  416 
30   409  82  
31   692  192 
32   239  220 
33   89   374 
34   825  228 
35   542  46  
36   551  870 
37   451  129 
38   295  775 
39   711  595 
40   264  103 
41   81   855 
42   871  137 
43   93   777 
44   412  188 
45   517  180 
46   409  131 
47   562  404 
48   592  76  
49   416  84  
50   679  972 
51   553  400 
52   597  176 
53   184  11  
54   337  230 
55   642  124 
56   310  228 
57   610  566 
58   271  834 
59   484  712 
60   983  360 
61   685  891 
62   439  206 
63   575  546 
64   476  103 
65   553  429 
66   492  871 
67   772  954 
68   499  140 
69   438  895 
70   782  617 
71   81   15  
72   74   632 
73   894  433 
74   55   629 
75   151  0   
76   578  217 
77   818  107 
78   341  828 
79   600  457 
80   457  799 
81   770  974 
82   150  483 
83   856  424 
84   203  991 
85   21   60  
86   635  331 
87   90   10  
88   521  570 
89   263  800 
90   542  537 
91   773  930 
92   13   724 
93   850  864 
94   812  687 
95   446  218 
96   352  473 
97   576  339 
98   744  905 
99   264  945 
100  191  174 
101  450  634 
DEMAND_SECTION
1    0   
2    1   
3    1   
4    1   
5    1   
6    1   
7    1   
8    1   
9    1   
10   1   
11   1   
12   1   
13   1   
14   1   
15   1   
16   1   
17   1   
18   1   
19   1   
20   1   
21   1   
22   1   
23   1   
24   1   
25   1   
26   1   
27   1   
28   1   
29   1   
30   1   
31   1   
32   1   
33   1   
34   1   
35   1   
36   1   
37   1   
38   1   
39   1   
40   1   
41   1   
42   1   
43   1   
44   1   
45   1   
46   1   
47   1   
48   1   
49   1   
50   1   
51   1   
52   1   
53   1   
54   1   
55   1   
56   1   
57   1   
58   1   
59   1   
60   1   
61   1   
62   1   
63   1   
64   1   
65   1   
66   1   
67   1   
68   1   
69   1   
70   1   
71   1   
72   1   
73   1   
74   1   
75   1   
76   1   
77   1   
78   1   
79   1   
80   1   
81   1   
82   1   
83   1   
84   1   
85   1   
86   1   
87   1   
88   1   
89   1   
90   1   
91   1   
92   1   
93   1   
94   1   
95   1   
96   1   
97   1   
98   1   
99   1   
100  1   
101  1   
DEPOT_SECTION
1
-1
EOF
