data/CVRPLIB/Vrp-Set-XML100/solutions/XML100_3315_24.sol
Route #1: 32 71 73 91 42 40 83 98 7 57 88 37 77 79 24 58 100 9 87 26 95
Route #2: 84 19 23 99 31 55 53 17 14 39 15 52 74 86 70 3
Route #3: 43 61 94 27 1 20 8 64 28 46 50 18 96 85 5 75 51 44 67 36 45
Route #4: 12 56 38 69 93 11 92 13 80 25 66 90 97 49 60 16 35 65 68 21 81
Route #5: 29 48 63 34 47 54 30 76 41 33 59 72 82 6 4 78 22 10 62 89 2
Cost 11111
